286
1000
700	1
697	1
695	1
694	1
693	1
692	1
691	2
690	1
689	3
686	2
681	1
680	1
677	2
676	1
674	1
671	1
670	3
665	2
663	1
660	1
659	2
658	1
656	1
654	1
653	1
652	1
651	1
650	1
649	1
648	1
646	1
639	2
638	1
636	3
634	1
633	1
631	1
629	1
627	1
623	1
622	1
621	2
620	1
619	1
617	1
615	2
613	1
612	1
611	1
606	1
605	1
604	1
603	1
601	1
599	1
597	1
596	1
595	1
594	1
593	1
592	2
591	2
590	1
589	1
588	1
587	2
585	5
584	2
583	2
580	2
579	1
573	2
572	4
568	3
567	1
566	1
563	2
561	2
560	1
557	2
556	1
555	1
543	1
542	1
540	2
539	1
538	1
536	2
535	3
534	1
529	1
528	2
523	3
522	3
519	2
515	1
514	2
512	1
511	1
510	3
509	1
508	1
505	1
502	2
501	3
500	1
499	2
495	1
494	1
491	1
490	2
489	1
488	1
487	1
485	1
482	2
481	2
477	1
476	1
471	1
470	1
468	2
463	2
460	2
456	2
454	1
453	1
452	1
451	1
448	1
444	1
443	1
442	1
439	1
435	1
434	1
433	1
431	1
430	1
427	1
424	1
421	1
419	1
418	2
414	2
413	1
410	1
408	1
407	1
404	1
402	2
401	1
399	1
395	1
393	2
392	1
389	1
387	1
384	1
382	1
381	3
379	1
378	1
376	1
373	1
369	2
367	1
366	1
365	1
364	1
360	3
356	1
352	1
351	2
349	1
347	2
345	2
344	2
343	5
342	1
341	3
334	1
333	2
330	1
329	1
328	1
327	1
324	1
323	2
322	1
316	2
315	1
313	1
312	1
311	2
308	1
307	1
306	1
303	1
302	1
301	2
300	1
293	5
287	1
286	1
284	1
283	1
280	1
277	2
276	1
275	2
270	1
269	1
265	1
262	2
261	2
259	1
256	1
251	2
248	1
246	2
244	1
243	1
240	1
237	1
236	1
232	2
230	2
228	1
226	1
224	1
220	2
214	1
213	2
210	1
203	2
202	1
201	1
198	1
197	1
195	1
194	3
192	1
191	1
188	1
185	1
182	1
179	1
177	2
176	1
174	1
172	2
171	1
169	1
167	1
165	1
164	2
163	1
161	1
158	2
157	2
156	1
155	1
154	3
153	1
151	1
149	3
142	1
138	1
136	1
134	1
131	1
128	2
127	1
124	2
121	1
119	1
113	1
112	1
110	2
109	1
106	2
105	1
104	2
103	2
102	2
